NAME : input200_3.txt .out.tour
COMMENT : Tour for input200_3.txt .tsp (Length 2906.68)
TYPE : TOUR
DIMENSION : 200
TOUR_SECTION
1
137
141
138
97
14
132
200
112
131
55
92
8
50
62
45
148
67
81
29
98
15
191
163
79
3
48
87
171
146
49
17
28
90
169
32
103
12
54
184
167
18
93
72
52
127
78
116
156
155
19
180
181
30
68
142
108
119
40
154
161
83
135
139
44
47
199
51
39
174
34
21
165
164
23
27
56
192
64
133
71
96
101
63
178
109
177
75
25
166
31
106
88
157
185
24
175
57
158
42
197
187
145
136
179
162
59
150
102
9
115
130
70
196
129
86
58
4
128
77
152
26
121
5
82
113
20
53
95
120
194
89
105
41
37
35
144
100
76
66
104
110
69
38
43
73
118
33
2
85
46
7
149
74
140
182
65
80
125
114
159
126
193
151
11
111
189
176
134
153
6
143
60
168
188
84
99
10
61
183
198
170
13
91
16
190
124
160
186
123
117
172
107
147
36
173
22
94
122
195
1
